c nIsolatedPIs 0
c maxPI 32
p cnf 189 472
c gate 33 -10 26 0
-10 -33 0
26 -33 0
10 -26 33 0
c gate 34 -9 -25 0
-9 -34 0
-25 -34 0
9 25 34 0
c gate 35 9 25 0
9 -35 0
25 -35 0
-9 -25 35 0
c gate 36 -34 -35 0
-34 -36 0
-35 -36 0
34 35 36 0
c gate 37 -2 18 0
-2 -37 0
18 -37 0
2 -18 37 0
c gate 38 -1 17 0
-1 -38 0
17 -38 0
1 -17 38 0
c gate 39 -37 -38 0
-37 -39 0
-38 -39 0
37 38 39 0
c gate 40 2 -18 0
2 -40 0
-18 -40 0
-2 18 40 0
c gate 41 3 -19 0
3 -41 0
-19 -41 0
-3 19 41 0
c gate 42 -40 -41 0
-40 -42 0
-41 -42 0
40 41 42 0
c gate 43 -39 42 0
-39 -43 0
42 -43 0
39 -42 43 0
c gate 44 -4 20 0
-4 -44 0
20 -44 0
4 -20 44 0
c gate 45 -3 19 0
-3 -45 0
19 -45 0
3 -19 45 0
c gate 46 -44 -45 0
-44 -46 0
-45 -46 0
44 45 46 0
c gate 47 -43 46 0
-43 -47 0
46 -47 0
43 -46 47 0
c gate 48 5 -21 0
5 -48 0
-21 -48 0
-5 21 48 0
c gate 49 4 -20 0
4 -49 0
-20 -49 0
-4 20 49 0
c gate 50 -48 -49 0
-48 -50 0
-49 -50 0
48 49 50 0
c gate 51 -47 50 0
-47 -51 0
50 -51 0
47 -50 51 0
c gate 52 -6 -22 0
-6 -52 0
-22 -52 0
6 22 52 0
c gate 53 6 22 0
6 -53 0
22 -53 0
-6 -22 53 0
c gate 54 -52 -53 0
-52 -54 0
-53 -54 0
52 53 54 0
c gate 55 -5 21 0
-5 -55 0
21 -55 0
5 -21 55 0
c gate 56 -54 -55 0
-54 -56 0
-55 -56 0
54 55 56 0
c gate 57 -51 56 0
-51 -57 0
56 -57 0
51 -56 57 0
c gate 58 7 -23 0
7 -58 0
-23 -58 0
-7 23 58 0
c gate 59 6 -22 0
6 -59 0
-22 -59 0
-6 22 59 0
c gate 60 -58 -59 0
-58 -60 0
-59 -60 0
58 59 60 0
c gate 61 -57 60 0
-57 -61 0
60 -61 0
57 -60 61 0
c gate 62 -7 23 0
-7 -62 0
23 -62 0
7 -23 62 0
c gate 63 -8 -24 0
-8 -63 0
-24 -63 0
8 24 63 0
c gate 64 8 24 0
8 -64 0
24 -64 0
-8 -24 64 0
c gate 65 -63 -64 0
-63 -65 0
-64 -65 0
63 64 65 0
c gate 66 -62 -65 0
-62 -66 0
-65 -66 0
62 65 66 0
c gate 67 -61 66 0
-61 -67 0
66 -67 0
61 -66 67 0
c gate 68 -36 67 0
-36 -68 0
67 -68 0
36 -67 68 0
c gate 69 8 -24 0
8 -69 0
-24 -69 0
-8 24 69 0
c gate 70 -36 69 0
-36 -70 0
69 -70 0
36 -69 70 0
c gate 71 9 -25 0
9 -71 0
-25 -71 0
-9 25 71 0
c gate 72 -70 -71 0
-70 -72 0
-71 -72 0
70 71 72 0
c gate 73 -68 72 0
-68 -73 0
72 -73 0
68 -72 73 0
c gate 74 -33 -73 0
-33 -74 0
-73 -74 0
33 73 74 0
c gate 75 -11 -27 0
-11 -75 0
-27 -75 0
11 27 75 0
c gate 76 11 27 0
11 -76 0
27 -76 0
-11 -27 76 0
c gate 77 -75 -76 0
-75 -77 0
-76 -77 0
75 76 77 0
c gate 78 10 -26 0
10 -78 0
-26 -78 0
-10 26 78 0
c gate 79 -77 -78 0
-77 -79 0
-78 -79 0
77 78 79 0
c gate 80 -74 79 0
-74 -80 0
79 -80 0
74 -79 80 0
c gate 81 -12 -28 0
-12 -81 0
-28 -81 0
12 28 81 0
c gate 82 12 28 0
12 -82 0
28 -82 0
-12 -28 82 0
c gate 83 -81 -82 0
-81 -83 0
-82 -83 0
81 82 83 0
c gate 84 -2 -18 0
-2 -84 0
-18 -84 0
2 18 84 0
c gate 85 1 17 0
1 -85 0
17 -85 0
-1 -17 85 0
c gate 86 -84 85 0
-84 -86 0
85 -86 0
84 -85 86 0
c gate 87 3 19 0
3 -87 0
19 -87 0
-3 -19 87 0
c gate 88 2 18 0
2 -88 0
18 -88 0
-2 -18 88 0
c gate 89 -87 -88 0
-87 -89 0
-88 -89 0
87 88 89 0
c gate 90 -86 89 0
-86 -90 0
89 -90 0
86 -89 90 0
c gate 91 -4 -20 0
-4 -91 0
-20 -91 0
4 20 91 0
c gate 92 -3 -19 0
-3 -92 0
-19 -92 0
3 19 92 0
c gate 93 -91 -92 0
-91 -93 0
-92 -93 0
91 92 93 0
c gate 94 -90 93 0
-90 -94 0
93 -94 0
90 -93 94 0
c gate 95 4 20 0
4 -95 0
20 -95 0
-4 -20 95 0
c gate 96 5 21 0
5 -96 0
21 -96 0
-5 -21 96 0
c gate 97 -95 -96 0
-95 -97 0
-96 -97 0
95 96 97 0
c gate 98 -94 97 0
-94 -98 0
97 -98 0
94 -97 98 0
c gate 99 -5 -21 0
-5 -99 0
-21 -99 0
5 21 99 0
c gate 100 -52 -99 0
-52 -100 0
-99 -100 0
52 99 100 0
c gate 101 -98 100 0
-98 -101 0
100 -101 0
98 -100 101 0
c gate 102 -58 -62 0
-58 -102 0
-62 -102 0
58 62 102 0
c gate 103 -53 -102 0
-53 -103 0
-102 -103 0
53 102 103 0
c gate 104 -101 103 0
-101 -104 0
103 -104 0
101 -103 104 0
c gate 105 -7 -23 0
-7 -105 0
-23 -105 0
7 23 105 0
c gate 106 -63 -105 0
-63 -106 0
-105 -106 0
63 105 106 0
c gate 107 -104 106 0
-104 -107 0
106 -107 0
104 -106 107 0
c gate 108 -35 -64 0
-35 -108 0
-64 -108 0
35 64 108 0
c gate 109 -107 108 0
-107 -109 0
108 -109 0
107 -108 109 0
c gate 110 -10 -26 0
-10 -110 0
-26 -110 0
10 26 110 0
c gate 111 -34 -110 0
-34 -111 0
-110 -111 0
34 110 111 0
c gate 112 -109 111 0
-109 -112 0
111 -112 0
109 -111 112 0
c gate 113 10 26 0
10 -113 0
26 -113 0
-10 -26 113 0
c gate 114 -76 -113 0
-76 -114 0
-113 -114 0
76 113 114 0
c gate 115 -112 114 0
-112 -115 0
114 -115 0
112 -114 115 0
c gate 116 -75 -115 0
-75 -116 0
-115 -116 0
75 115 116 0
c gate 117 83 116 0
83 -117 0
116 -117 0
-83 -116 117 0
c gate 118 -13 -29 0
-13 -118 0
-29 -118 0
13 29 118 0
c gate 119 13 29 0
13 -119 0
29 -119 0
-13 -29 119 0
c gate 120 -118 -119 0
-118 -120 0
-119 -120 0
118 119 120 0
c gate 121 -14 -30 0
-14 -121 0
-30 -121 0
14 30 121 0
c gate 122 14 30 0
14 -122 0
30 -122 0
-14 -30 122 0
c gate 123 -121 -122 0
-121 -123 0
-122 -123 0
121 122 123 0
c gate 124 120 123 0
120 -124 0
123 -124 0
-120 -123 124 0
c gate 125 -15 -31 0
-15 -125 0
-31 -125 0
15 31 125 0
c gate 126 15 31 0
15 -126 0
31 -126 0
-15 -31 126 0
c gate 127 -125 -126 0
-125 -127 0
-126 -127 0
125 126 127 0
c gate 128 -16 -32 0
-16 -128 0
-32 -128 0
16 32 128 0
c gate 129 16 32 0
16 -129 0
32 -129 0
-16 -32 129 0
c gate 130 -128 -129 0
-128 -130 0
-129 -130 0
128 129 130 0
c gate 131 127 130 0
127 -131 0
130 -131 0
-127 -130 131 0
c gate 132 124 131 0
124 -132 0
131 -132 0
-124 -131 132 0
c gate 133 117 -132 0
117 -133 0
-132 -133 0
-117 132 133 0
c gate 134 -64 -106 0
-64 -134 0
-106 -134 0
64 106 134 0
c gate 135 -34 -134 0
-34 -135 0
-134 -135 0
34 134 135 0
c gate 136 -35 -113 0
-35 -136 0
-113 -136 0
35 113 136 0
c gate 137 -135 136 0
-135 -137 0
136 -137 0
135 -136 137 0
c gate 138 77 -110 0
77 -138 0
-110 -138 0
-77 110 138 0
c gate 139 -137 138 0
-137 -139 0
138 -139 0
137 -138 139 0
c gate 140 -76 -139 0
-76 -140 0
-139 -140 0
76 139 140 0
c gate 141 -83 116 0
-83 -141 0
116 -141 0
83 -116 141 0
c gate 142 140 -141 0
140 -142 0
-141 -142 0
-140 141 142 0
c gate 143 83 -116 0
83 -143 0
-116 -143 0
-83 116 143 0
c gate 144 -140 -143 0
-140 -144 0
-143 -144 0
140 143 144 0
c gate 145 -142 -144 0
-142 -145 0
-144 -145 0
142 144 145 0
c gate 146 65 104 0
65 -146 0
104 -146 0
-65 -104 146 0
c gate 147 145 146 0
145 -147 0
146 -147 0
-145 -146 147 0
c gate 148 -133 -147 0
-133 -148 0
-147 -148 0
133 147 148 0
c gate 149 -57 -148 0
-57 -149 0
-148 -149 0
57 148 149 0
c gate 150 -65 102 0
-65 -150 0
102 -150 0
65 -102 150 0
c gate 151 57 -150 0
57 -151 0
-150 -151 0
-57 150 151 0
c gate 152 -149 -151 0
-149 -152 0
-151 -152 0
149 151 152 0
c gate 153 -67 152 0
-67 -153 0
152 -153 0
67 -152 153 0
c gate 154 -68 -153 0
-68 -154 0
-153 -154 0
68 153 154 0
c gate 155 -110 -113 0
-110 -155 0
-113 -155 0
110 113 155 0
c gate 156 68 -69 0
68 -156 0
-69 -156 0
-68 69 156 0
c gate 157 155 156 0
155 -157 0
156 -157 0
-155 -156 157 0
c gate 158 -154 -157 0
-154 -158 0
-157 -158 0
154 157 158 0
c gate 159 77 -155 0
77 -159 0
-155 -159 0
-77 155 159 0
c gate 160 156 159 0
156 -160 0
159 -160 0
-156 -159 160 0
c gate 161 158 -160 0
158 -161 0
-160 -161 0
-158 160 161 0
c gate 162 -80 -161 0
-80 -162 0
-161 -162 0
80 161 162 0
c gate 163 -83 -120 0
-83 -163 0
-120 -163 0
83 120 163 0
c gate 164 -123 -127 0
-123 -164 0
-127 -164 0
123 127 164 0
c gate 165 -130 164 0
-130 -165 0
164 -165 0
130 -164 165 0
c gate 166 163 165 0
163 -166 0
165 -166 0
-163 -165 166 0
c gate 167 80 166 0
80 -167 0
166 -167 0
-80 -166 167 0
c gate 168 -162 -167 0
-162 -168 0
-167 -168 0
162 167 168 0
c gate 169 -148 168 0
-148 -169 0
168 -169 0
148 -168 169 0
c gate 170 104 -145 0
104 -170 0
-145 -170 0
-104 145 170 0
c gate 171 -117 -170 0
-117 -171 0
-170 -171 0
117 170 171 0
c gate 172 -133 -171 0
-133 -172 0
-171 -172 0
133 171 172 0
c gate 173 -168 172 0
-168 -173 0
172 -173 0
168 -172 173 0
c gate 174 -169 -173 0
-169 -174 0
-173 -174 0
169 173 174 0
c gate 175 -57 174 0
-57 -175 0
174 -175 0
57 -174 175 0
c gate 176 -151 -175 0
-151 -176 0
-175 -176 0
151 175 176 0
c gate 177 -168 -176 0
-168 -177 0
-176 -177 0
168 176 177 0
c gate 178 152 168 0
152 -178 0
168 -178 0
-152 -168 178 0
c gate 179 -177 -178 0
-177 -179 0
-178 -179 0
177 178 179 0
c gate 180 -67 -179 0
-67 -180 0
-179 -180 0
67 179 180 0
c gate 181 67 -168 0
67 -181 0
-168 -181 0
-67 168 181 0
c gate 182 -177 -181 0
-177 -182 0
-181 -182 0
177 181 182 0
c gate 183 -180 182 0
-180 -183 0
182 -183 0
180 -182 183 0
c gate 184 -161 -183 0
-161 -184 0
-183 -184 0
161 183 184 0
c gate 185 -68 -182 0
-68 -185 0
-182 -185 0
68 182 185 0
c gate 186 158 168 0
158 -186 0
168 -186 0
-158 -168 186 0
c gate 187 -185 -186 0
-185 -187 0
-186 -187 0
185 186 187 0
c gate 188 -184 187 0
-184 -188 0
187 -188 0
184 -187 188 0
c gate 189 80 -188 0
80 -189 0
-188 -189 0
-80 188 189 0
c PO
189 0
